






































































































56 52 4 17 34 6 33 
16 50 36 66 68 47 75 
60 21 26 15 19 27 30 
35 39 14 45 8 76 46 
62 7 5 67 28 11 12 20 
73 38 61 43 55 3 70 
51 71 23 65 53 37 42 
29 58 25 18 49 72 
31 22 40 2 
74 9 32 0 24 10 
1 57 41 54 64 
48 44 63 13 59 69 
